Problem:    
Rows:       113
Columns:    45 (34 integer, 34 binary)
Non-zeros:  356
Status:     INTEGER OPTIMAL
Objective:  value = 11.328775 (MINimum)

   No.   Row name        Activity     Lower bound   Upper bound
------ ------------    ------------- ------------- -------------
     1 r.5                   11.3288             0               
     2 r.6                   11.3288      -995.004               
     3 r.7                   1011.33             0               
     4 r.8                  -988.671      -996.871               
     5 r.9                   11.3288             0               
     6 r.10                  11.3288      -994.495               
     7 r.11                  1011.33             0               
     8 r.12                 -991.801      -996.215               
     9 r.13                  11.3288             0               
    10 r.14                 -994.488      -996.258               
    11 r.15                  1011.33             0               
    12 r.16                 -995.586      -998.319               
    13 r.17                  1011.33             0               
    14 r.18                 -988.671      -990.442               
    15 r.19                  11.3288             0               
    16 r.20                  11.3288      -992.626               
    17 r.21                  1011.33             0               
    18 r.22                 -999.707      -999.707               
    19 r.23                  11.3288             0               
    20 r.24                  5.68264      -998.913               
    21 r.25                        1             1             = 
    22 r.26                        1             1             = 
    23 r.27                        1             1             = 
    24 r.28                        1             1             = 
    25 r.29                        1             1             = 
    26 r.30                     1000             2               
    27 r.31                    -1000         -1001               
    28 r.32                     2000      -994.495               
    29 r.33                        2             2               
    30 r.34                       -2         -1001               
    31 r.35                  -3.1293      -996.215               
    32 r.36                     1000             2               
    33 r.37                    -1000         -1001               
    34 r.38                  994.183      -996.258               
    35 r.39                        2             2               
    36 r.40                       -2         -1001               
    37 r.41                  -6.9145      -998.319               
    38 r.42                     1001             2               
    39 r.43                    -1001         -1001               
    40 r.44                     2000      -990.442               
    41 r.45                     1001             2               
    42 r.46                    -1001         -1001               
    43 r.47                     2000      -992.626               
    44 r.48                   9.5583      -995.004               
    45 r.49                 -990.442      -996.871               
    46 r.50                   9.5583      -995.004               
    47 r.51                 -990.442      -996.871               
    48 r.52                     1000             2               
    49 r.53                    -1000         -1001               
    50 r.54                     2000        4.9963               
    51 r.55                        2             2               
    52 r.56                       -2         -1001               
    53 r.57                   3.1293        3.1293               
    54 r.58                     1000             2               
    55 r.59                    -1000         -1001               
    56 r.60                  994.183      -996.258               
    57 r.61                        2             2               
    58 r.62                       -2         -1001               
    59 r.63                  -3.7852      -998.319               
    60 r.64                     1001             2               
    61 r.65                    -1001         -1001               
    62 r.66                     2000      -990.442               
    63 r.67                     1001             2               
    64 r.68                    -1001         -1001               
    65 r.69                  2003.13      -992.626               
    66 r.70                   9.5583      -994.495               
    67 r.71                 -993.571      -996.215               
    68 r.72                   9.5583      -994.495               
    69 r.73                 -993.571      -996.215               
    70 r.74                     1000             2               
    71 r.75                    -1000         -1001               
    72 r.76                  3005.82        4.9963               
    73 r.77                        2             2               
    74 r.78                       -2         -1001               
    75 r.79                   6.9145        3.1293               
    76 r.80                     1000             2               
    77 r.81                    -1000         -1001               
    78 r.82                  3005.82        5.5046               
    79 r.83                        2             2               
    80 r.84                       -2         -1001               
    81 r.85                   3.7852        3.7852               
    82 r.86                     1001             2               
    83 r.87                    -1001         -1001               
    84 r.88                  2005.82      -990.442               
    85 r.89                     1001             2               
    86 r.90                    -1001         -1001               
    87 r.91                  2006.91      -992.626               
    88 r.92                 -996.258      -996.258               
    89 r.93                 -997.356      -998.319               
    90 r.94                 -996.258      -996.258               
    91 r.95                 -997.356      -998.319               
    92 r.96                     1001             2               
    93 r.97                    -1001         -1001               
    94 r.98                     2000        4.9963               
    95 r.99                     1001             2               
    96 r.100                   -1001         -1001               
    97 r.101                    2000        3.1293               
    98 r.102                    1001             2               
    99 r.103                   -1001         -1001               
   100 r.104                    2000        5.5046               
   101 r.105                    1001             2               
   102 r.106                   -1001         -1001               
   103 r.107                 1996.87        3.7852               
   104 r.108                    1001             2               
   105 r.109                   -1001         -1001               
   106 r.110                 1994.18        3.7418               
   107 r.111                    1001             2               
   108 r.112                   -1001         -1001               
   109 r.113                 1993.09        1.6812               
   110 r.114                -990.442      -990.442               
   111 r.115                  9.5583      -992.626               
   112 r.116                -990.442      -990.442               
   113 r.117                  9.5583      -992.626               

   No. Column name       Activity     Lower bound   Upper bound
------ ------------    ------------- ------------- -------------
     1 tt                    11.3288             0               
     2 s_1_1        *              0             0             1 
     3 t_1_1                       0             0               
     4 s_2_1        *              1             0             1 
     5 t_2_1                       0             0               
     6 s_1_2        *              0             0             1 
     7 t_1_2                       0             0               
     8 s_2_2        *              1             0             1 
     9 t_2_2                  3.1293             0               
    10 s_1_3        *              0             0             1 
    11 t_1_3                 1005.82             0               
    12 s_2_3        *              1             0             1 
    13 t_2_3                  6.9145             0               
    14 s_1_4        *              1             0             1 
    15 t_1_4                       0             0               
    16 s_2_4        *              0             0             1 
    17 t_2_4                       0             0               
    18 s_1_5        *              1             0             1 
    19 t_1_5                  9.5583             0               
    20 s_2_5        *              0             0             1 
    21 t_2_5                  9.5583             0               
    22 r_1_1_2      *              1             0             1 
    23 u_1_1_2      *              0             0             1 
    24 r_2_1_2      *              0             0             1 
    25 u_2_1_2      *              0             0             1 
    26 r_1_1_3      *              1             0             1 
    27 u_1_1_3      *              0             0             1 
    28 r_2_1_3      *              0             0             1 
    29 u_2_1_3      *              0             0             1 
    30 r_1_1_4      *              1             0             1 
    31 u_1_1_4      *              0             0             1 
    32 r_2_1_4      *              1             0             1 
    33 u_2_1_4      *              0             0             1 
    34 r_1_2_3      *              1             0             1 
    35 u_1_2_3      *              0             0             1 
    36 r_2_2_3      *              0             0             1 
    37 u_2_2_3      *              0             0             1 
    38 r_1_2_4      *              1             0             1 
    39 u_1_2_4      *              0             0             1 
    40 r_2_2_4      *              1             0             1 
    41 u_2_2_4      *              0             0             1 
    42 r_1_3_4      *              1             0             1 
    43 u_1_3_4      *              1             0             1 
    44 r_2_3_4      *              1             0             1 
    45 u_2_3_4      *              0             0             1 

Integer feasibility conditions:

KKT.PE: max.abs.err = 0.00e+00 on row 0
        max.rel.err = 0.00e+00 on row 0
        High quality

KKT.PB: max.abs.err = 0.00e+00 on row 0
        max.rel.err = 0.00e+00 on row 0
        High quality

End of output
